(set-logic QF_BV)
(define-fun implies ((p Bool) (q Bool)) Bool (or (not p) q))

(declare-const STANDARD_MODEL_NAME Bool)
(declare-const Big Bool)
(declare-const Normal Bool)
(declare-const Neapolitan Bool)
(declare-const Sicilian Bool)
(declare-const CheesyCrust Bool)
(declare-const Ham Bool)
(declare-const Mozzarella Bool)
(declare-const Salami Bool)
(assert
(and STANDARD_MODEL_NAME(and(implies(or Big Normal)
 STANDARD_MODEL_NAME)
(implies STANDARD_MODEL_NAME(or(and Big(not Normal))
(and(not Big)
 Normal)))
(and(implies(or Neapolitan Sicilian)
 STANDARD_MODEL_NAME)
(implies STANDARD_MODEL_NAME(or(and Neapolitan(not Sicilian))
(and(not Neapolitan)
 Sicilian))))
(implies CheesyCrust STANDARD_MODEL_NAME)
(=(or Ham Mozzarella Salami)
 STANDARD_MODEL_NAME))
(and(implies CheesyCrust Big)
(implies Normal CheesyCrust)))
)